0 404
14 392
17 382
21 378
25 376
27 368
28 360
33 352
41 348
65 340
68 318
75 314
78 306
84 274
92 258
93 248
117 246
121 238
131 234
153 214
158 210
173 200
179 198
229 194
239 190
290 182
299 180
337 176
454 168
661 164
745 160
1113 152
1672 146
